c Qdimacs file from skolem function generator
p cnf 279 760
a 185 186 187 188 189 190 191 192 193 194 195 196 197 198 199 200 201 202 203 204 205 206 207 208 209 210 211 212 213 214 215 216 217 218 219 220 221 222 223 224 225 226 227 228 229 230 231 232 233 234 235 236 237 238 239 240 241 242 243 244 245 246 247 248 0
e 184 249 250 251 252 253 254 255 256 257 258 259 260 261 262 263 264 265 266 267 268 269 270 271 272 273 274 275 276 277 278 1 2 3 4 5 6 7 8 9 10 11 12 13 14 15 16 17 18 19 20 21 22 23 24 25 26 27 28 29 30 31 32 33 34 35 36 37 38 39 40 41 42 43 44 45 46 47 48 49 50 51 52 53 54 55 56 57 58 59 60 61 62 63 64 65 66 67 68 69 70 71 72 73 74 75 76 77 78 79 80 81 82 83 84 85 86 87 88 89 90 91 92 93 94 95 96 97 98 99 100 101 102 103 104 105 106 107 108 109 110 111 112 113 114 115 116 117 118 119 120 121 122 123 124 125 126 127 128 129 130 131 132 133 134 135 136 137 138 139 140 141 142 143 144 145 146 147 148 149 150 151 152 153 154 155 156 157 158 159 160 161 162 163 164 165 166 167 168 169 170 171 172 173 174 175 176 177 178 179 180 181 182 183 279 0
4 5 68 73 -76 0
-4 76 0
-4 -73 0
-4 -5 0
-4 -68 0
5 249 -6 0
5 -249 6 0
-5 -249 -6 0
-5 249 6 0
6 -7 -67 0
6 7 67 0
-6 7 -67 0
-6 -7 67 0
7 187 8 0
7 188 8 0
-7 -8 0
-7 -187 -188 0
8 187 -188 9 0
8 -187 188 9 0
-8 -9 0
-8 187 188 0
-8 -187 -188 0
9 189 10 0
9 190 10 0
-9 -10 0
-9 -189 -190 0
10 189 -190 11 0
10 -189 190 11 0
-10 -11 0
-10 189 190 0
-10 -189 -190 0
11 191 12 0
11 192 12 0
-11 -12 0
-11 -191 -192 0
12 191 -192 13 0
12 -191 192 13 0
-12 -13 0
-12 191 192 0
-12 -191 -192 0
13 193 14 0
13 194 14 0
-13 -14 0
-13 -193 -194 0
14 193 -194 15 0
14 -193 194 15 0
-14 -15 0
-14 193 194 0
-14 -193 -194 0
15 195 16 0
15 196 16 0
-15 -16 0
-15 -195 -196 0
16 195 -196 17 0
16 -195 196 17 0
-16 -17 0
-16 195 196 0
-16 -195 -196 0
17 197 18 0
17 198 18 0
-17 -18 0
-17 -197 -198 0
18 197 -198 19 0
18 -197 198 19 0
-18 -19 0
-18 197 198 0
-18 -197 -198 0
19 199 20 0
19 200 20 0
-19 -20 0
-19 -199 -200 0
20 199 -200 21 0
20 -199 200 21 0
-20 -21 0
-20 199 200 0
-20 -199 -200 0
21 201 22 0
21 202 22 0
-21 -22 0
-21 -201 -202 0
22 201 -202 23 0
22 -201 202 23 0
-22 -23 0
-22 201 202 0
-22 -201 -202 0
23 203 24 0
23 204 24 0
-23 -24 0
-23 -203 -204 0
24 203 -204 25 0
24 -203 204 25 0
-24 -25 0
-24 203 204 0
-24 -203 -204 0
25 205 26 0
25 206 26 0
-25 -26 0
-25 -205 -206 0
26 205 -206 27 0
26 -205 206 27 0
-26 -27 0
-26 205 206 0
-26 -205 -206 0
27 207 28 0
27 208 28 0
-27 -28 0
-27 -207 -208 0
28 207 -208 29 0
28 -207 208 29 0
-28 -29 0
-28 207 208 0
-28 -207 -208 0
29 209 30 0
29 210 30 0
-29 -30 0
-29 -209 -210 0
30 209 -210 31 0
30 -209 210 31 0
-30 -31 0
-30 209 210 0
-30 -209 -210 0
31 211 32 0
31 212 32 0
-31 -32 0
-31 -211 -212 0
32 211 -212 33 0
32 -211 212 33 0
-32 -33 0
-32 211 212 0
-32 -211 -212 0
33 213 34 0
33 214 34 0
-33 -34 0
-33 -213 -214 0
34 213 -214 35 0
34 -213 214 35 0
-34 -35 0
-34 213 214 0
-34 -213 -214 0
35 215 36 0
35 216 36 0
-35 -36 0
-35 -215 -216 0
36 215 -216 37 0
36 -215 216 37 0
-36 -37 0
-36 215 216 0
-36 -215 -216 0
37 217 38 0
37 218 38 0
-37 -38 0
-37 -217 -218 0
38 217 -218 39 0
38 -217 218 39 0
-38 -39 0
-38 217 218 0
-38 -217 -218 0
39 219 40 0
39 220 40 0
-39 -40 0
-39 -219 -220 0
40 219 -220 41 0
40 -219 220 41 0
-40 -41 0
-40 219 220 0
-40 -219 -220 0
41 221 42 0
41 222 42 0
-41 -42 0
-41 -221 -222 0
42 221 -222 43 0
42 -221 222 43 0
-42 -43 0
-42 221 222 0
-42 -221 -222 0
43 223 44 0
43 224 44 0
-43 -44 0
-43 -223 -224 0
44 223 -224 45 0
44 -223 224 45 0
-44 -45 0
-44 223 224 0
-44 -223 -224 0
45 225 46 0
45 226 46 0
-45 -46 0
-45 -225 -226 0
46 225 -226 47 0
46 -225 226 47 0
-46 -47 0
-46 225 226 0
-46 -225 -226 0
47 227 48 0
47 228 48 0
-47 -48 0
-47 -227 -228 0
48 227 -228 49 0
48 -227 228 49 0
-48 -49 0
-48 227 228 0
-48 -227 -228 0
49 229 50 0
49 230 50 0
-49 -50 0
-49 -229 -230 0
50 229 -230 51 0
50 -229 230 51 0
-50 -51 0
-50 229 230 0
-50 -229 -230 0
51 231 52 0
51 232 52 0
-51 -52 0
-51 -231 -232 0
52 231 -232 53 0
52 -231 232 53 0
-52 -53 0
-52 231 232 0
-52 -231 -232 0
53 233 54 0
53 234 54 0
-53 -54 0
-53 -233 -234 0
54 233 -234 55 0
54 -233 234 55 0
-54 -55 0
-54 233 234 0
-54 -233 -234 0
55 235 56 0
55 236 56 0
-55 -56 0
-55 -235 -236 0
56 235 -236 57 0
56 -235 236 57 0
-56 -57 0
-56 235 236 0
-56 -235 -236 0
57 237 58 0
57 238 58 0
-57 -58 0
-57 -237 -238 0
58 59 -66 0
-58 -59 0
-58 66 0
59 239 60 0
59 240 60 0
-59 -60 0
-59 -239 -240 0
60 239 -240 61 0
60 -239 240 61 0
-60 -61 0
-60 239 240 0
-60 -239 -240 0
61 241 62 0
61 242 62 0
-61 -62 0
-61 -241 -242 0
62 63 -65 0
-62 -63 0
-62 65 0
63 243 64 0
63 244 64 0
-63 -64 0
-63 -243 -244 0
64 243 -244 -245 -246 0
64 -243 244 -245 -246 0
-64 246 0
-64 243 244 0
-64 245 0
-64 -243 -244 0
65 241 -242 0
65 -241 242 0
-65 -241 -242 0
-65 241 242 0
66 237 -238 0
66 -237 238 0
-66 -237 -238 0
-66 237 238 0
67 185 -186 0
67 -185 186 0
-67 -185 -186 0
-67 185 186 0
68 -69 -71 0
68 69 71 0
-68 69 -71 0
-68 -69 71 0
69 185 70 0
69 186 70 0
-69 -70 0
-69 -185 -186 0
70 185 -186 7 0
70 -185 186 7 0
-70 -7 0
-70 185 186 0
-70 -185 -186 0
71 184 -72 0
71 -184 72 0
-71 -184 -72 0
-71 184 72 0
72 247 -248 0
72 -247 248 0
-72 -247 -248 0
-72 247 248 0
73 250 -74 0
73 -250 74 0
-73 -250 -74 0
-73 250 74 0
74 -9 -75 0
74 9 75 0
-74 9 -75 0
-74 -9 75 0
75 187 -188 0
75 -187 188 0
-75 -187 -188 0
-75 187 188 0
76 77 80 -83 0
-76 83 0
-76 -80 0
-76 -77 0
77 251 -78 0
77 -251 78 0
-77 -251 -78 0
-77 251 78 0
78 -11 -79 0
78 11 79 0
-78 11 -79 0
-78 -11 79 0
79 189 -190 0
79 -189 190 0
-79 -189 -190 0
-79 189 190 0
80 252 -81 0
80 -252 81 0
-80 -252 -81 0
-80 252 81 0
81 -13 -82 0
81 13 82 0
-81 13 -82 0
-81 -13 82 0
82 191 -192 0
82 -191 192 0
-82 -191 -192 0
-82 191 192 0
83 84 87 -90 0
-83 90 0
-83 -87 0
-83 -84 0
84 253 -85 0
84 -253 85 0
-84 -253 -85 0
-84 253 85 0
85 -15 -86 0
85 15 86 0
-85 15 -86 0
-85 -15 86 0
86 193 -194 0
86 -193 194 0
-86 -193 -194 0
-86 193 194 0
87 254 -88 0
87 -254 88 0
-87 -254 -88 0
-87 254 88 0
88 -17 -89 0
88 17 89 0
-88 17 -89 0
-88 -17 89 0
89 195 -196 0
89 -195 196 0
-89 -195 -196 0
-89 195 196 0
90 91 94 -97 0
-90 97 0
-90 -94 0
-90 -91 0
91 255 -92 0
91 -255 92 0
-91 -255 -92 0
-91 255 92 0
92 -19 -93 0
92 19 93 0
-92 19 -93 0
-92 -19 93 0
93 197 -198 0
93 -197 198 0
-93 -197 -198 0
-93 197 198 0
94 256 -95 0
94 -256 95 0
-94 -256 -95 0
-94 256 95 0
95 -21 -96 0
95 21 96 0
-95 21 -96 0
-95 -21 96 0
96 199 -200 0
96 -199 200 0
-96 -199 -200 0
-96 199 200 0
97 98 101 -104 0
-97 104 0
-97 -101 0
-97 -98 0
98 257 -99 0
98 -257 99 0
-98 -257 -99 0
-98 257 99 0
99 -23 -100 0
99 23 100 0
-99 23 -100 0
-99 -23 100 0
100 201 -202 0
100 -201 202 0
-100 -201 -202 0
-100 201 202 0
101 258 -102 0
101 -258 102 0
-101 -258 -102 0
-101 258 102 0
102 -25 -103 0
102 25 103 0
-102 25 -103 0
-102 -25 103 0
103 203 -204 0
103 -203 204 0
-103 -203 -204 0
-103 203 204 0
104 105 108 -111 0
-104 111 0
-104 -108 0
-104 -105 0
105 259 -106 0
105 -259 106 0
-105 -259 -106 0
-105 259 106 0
106 -27 -107 0
106 27 107 0
-106 27 -107 0
-106 -27 107 0
107 205 -206 0
107 -205 206 0
-107 -205 -206 0
-107 205 206 0
108 260 -109 0
108 -260 109 0
-108 -260 -109 0
-108 260 109 0
109 -29 -110 0
109 29 110 0
-109 29 -110 0
-109 -29 110 0
110 207 -208 0
110 -207 208 0
-110 -207 -208 0
-110 207 208 0
111 112 115 118 -121 0
-111 121 0
-111 -118 0
-111 -112 0
-111 -115 0
112 261 -113 0
112 -261 113 0
-112 -261 -113 0
-112 261 113 0
113 -31 -114 0
113 31 114 0
-113 31 -114 0
-113 -31 114 0
114 209 -210 0
114 -209 210 0
-114 -209 -210 0
-114 209 210 0
115 262 -116 0
115 -262 116 0
-115 -262 -116 0
-115 262 116 0
116 -33 -117 0
116 33 117 0
-116 33 -117 0
-116 -33 117 0
117 211 -212 0
117 -211 212 0
-117 -211 -212 0
-117 211 212 0
118 263 -119 0
118 -263 119 0
-118 -263 -119 0
-118 263 119 0
119 -35 -120 0
119 35 120 0
-119 35 -120 0
-119 -35 120 0
120 213 -214 0
120 -213 214 0
-120 -213 -214 0
-120 213 214 0
121 122 125 128 -131 0
-121 131 0
-121 -128 0
-121 -122 0
-121 -125 0
122 264 -123 0
122 -264 123 0
-122 -264 -123 0
-122 264 123 0
123 -37 -124 0
123 37 124 0
-123 37 -124 0
-123 -37 124 0
124 215 -216 0
124 -215 216 0
-124 -215 -216 0
-124 215 216 0
125 265 -126 0
125 -265 126 0
-125 -265 -126 0
-125 265 126 0
126 -39 -127 0
126 39 127 0
-126 39 -127 0
-126 -39 127 0
127 217 -218 0
127 -217 218 0
-127 -217 -218 0
-127 217 218 0
128 266 -129 0
128 -266 129 0
-128 -266 -129 0
-128 266 129 0
129 -41 -130 0
129 41 130 0
-129 41 -130 0
-129 -41 130 0
130 219 -220 0
130 -219 220 0
-130 -219 -220 0
-130 219 220 0
131 132 135 138 -141 0
-131 141 0
-131 -138 0
-131 -132 0
-131 -135 0
132 267 -133 0
132 -267 133 0
-132 -267 -133 0
-132 267 133 0
133 -43 -134 0
133 43 134 0
-133 43 -134 0
-133 -43 134 0
134 221 -222 0
134 -221 222 0
-134 -221 -222 0
-134 221 222 0
135 268 -136 0
135 -268 136 0
-135 -268 -136 0
-135 268 136 0
136 -45 -137 0
136 45 137 0
-136 45 -137 0
-136 -45 137 0
137 223 -224 0
137 -223 224 0
-137 -223 -224 0
-137 223 224 0
138 269 -139 0
138 -269 139 0
-138 -269 -139 0
-138 269 139 0
139 -47 -140 0
139 47 140 0
-139 47 -140 0
-139 -47 140 0
140 225 -226 0
140 -225 226 0
-140 -225 -226 0
-140 225 226 0
141 142 145 148 -151 0
-141 151 0
-141 -148 0
-141 -142 0
-141 -145 0
142 270 -143 0
142 -270 143 0
-142 -270 -143 0
-142 270 143 0
143 -49 -144 0
143 49 144 0
-143 49 -144 0
-143 -49 144 0
144 227 -228 0
144 -227 228 0
-144 -227 -228 0
-144 227 228 0
145 271 -146 0
145 -271 146 0
-145 -271 -146 0
-145 271 146 0
146 -51 -147 0
146 51 147 0
-146 51 -147 0
-146 -51 147 0
147 229 -230 0
147 -229 230 0
-147 -229 -230 0
-147 229 230 0
148 272 -149 0
148 -272 149 0
-148 -272 -149 0
-148 272 149 0
149 -53 -150 0
149 53 150 0
-149 53 -150 0
-149 -53 150 0
150 231 -232 0
150 -231 232 0
-150 -231 -232 0
-150 231 232 0
151 152 155 158 -160 0
-151 160 0
-151 -158 0
-151 -152 0
-151 -155 0
152 273 -153 0
152 -273 153 0
-152 -273 -153 0
-152 273 153 0
153 -55 -154 0
153 55 154 0
-153 55 -154 0
-153 -55 154 0
154 233 -234 0
154 -233 234 0
-154 -233 -234 0
-154 233 234 0
155 274 -156 0
155 -274 156 0
-155 -274 -156 0
-155 274 156 0
156 -57 -157 0
156 57 157 0
-156 57 -157 0
-156 -57 157 0
157 235 -236 0
157 -235 236 0
-157 -235 -236 0
-157 235 236 0
158 275 -159 0
158 -275 159 0
-158 -275 -159 0
-158 275 159 0
159 -59 -66 0
159 59 66 0
-159 59 -66 0
-159 -59 66 0
160 161 164 166 0
-160 -161 0
-160 -166 0
-160 -164 0
161 276 -162 0
161 -276 162 0
-161 -276 -162 0
-161 276 162 0
162 -61 -163 0
162 61 163 0
-162 61 -163 0
-162 -61 163 0
163 239 -240 0
163 -239 240 0
-163 -239 -240 0
-163 239 240 0
164 277 -165 0
164 -277 165 0
-164 -277 -165 0
-164 277 165 0
165 -63 -65 0
165 63 65 0
-165 63 -65 0
-165 -63 65 0
166 278 -167 0
166 -278 167 0
-166 -278 -167 0
-166 278 167 0
167 168 -169 0
167 -168 169 0
-167 -168 -169 0
-167 168 169 0
168 -245 -246 0
-168 245 0
-168 246 0
169 243 -244 0
169 -243 244 0
-169 -243 -244 0
-169 243 244 0
170 164 166 -171 0
-170 171 0
-170 -166 0
-170 -164 0
171 158 161 -172 0
-171 172 0
-171 -161 0
-171 -158 0
172 152 155 -173 0
-172 173 0
-172 -155 0
-172 -152 0
173 142 145 148 -174 0
-173 174 0
-173 -148 0
-173 -142 0
-173 -145 0
174 132 135 138 -175 0
-174 175 0
-174 -138 0
-174 -132 0
-174 -135 0
175 125 128 -176 0
-175 176 0
-175 -128 0
-175 -125 0
176 118 122 -177 0
-176 177 0
-176 -122 0
-176 -118 0
177 112 115 -178 0
-177 178 0
-177 -115 0
-177 -112 0
178 105 108 -179 0
-178 179 0
-178 -108 0
-178 -105 0
179 98 101 -180 0
-179 180 0
-179 -101 0
-179 -98 0
180 91 94 -181 0
-180 181 0
-180 -94 0
-180 -91 0
181 84 87 -182 0
-181 182 0
-181 -87 0
-181 -84 0
182 77 80 -183 0
-182 183 0
-182 -80 0
-182 -77 0
183 5 68 73 0
-183 -5 0
-183 -73 0
-183 -68 0
279 0
2 -4 0
-2 4 0
3 -170 0
-3 170 0
3 0

